proyfinal/src/viki/013/experimentInOfficeAgust.take6.output/e984a18d-e3b3-4ba2-bf8b-dca14f8a8645.als.out
Reading from standard input... Use '--help' for help.
============================[ Problem Statistics ]=============================
|                                                                             |
|  Number of variables:         87638                                         |
|  Number of clauses:          161767                                         |
|  Parse time:                   0.03 s                                       |
|                                                                             |
============================[ Search Statistics ]==============================
| Conflicts |          ORIGINAL         |          LEARNT          | Progress |
|           |    Vars  Clauses Literals |    Limit  Clauses Lit/Cl |          |
===============================================================================
|       100 |   63117   107902   269573 |    39564      100      7 | 27.980 % |
|       250 |   63117   107902   269573 |    43520      250     25 | 27.980 % |
|       475 |   63116   107858   269483 |    47872      474     41 | 27.981 % |
|       812 |   63116   107858   269483 |    52659      811     43 | 27.981 % |
|      1318 |   63116   107858   269483 |    57925     1317     45 | 27.981 % |
|      2077 |   63116   107858   269483 |    63718     2076     51 | 27.981 % |
|      3216 |   63116   107858   269483 |    70090     3215     55 | 27.981 % |
|      4924 |   63116   107858   269483 |    77099     4923     61 | 27.981 % |
|      7486 |   63094   107766   269272 |    84809     5698     63 | 28.006 % |
|     11330 |   63094   107766   269272 |    93289     9542     77 | 28.006 % |
===============================================================================
restarts              : 62
conflicts             : 14637          (6174 /sec)
decisions             : 49709          (0.00 % random) (20968 /sec)
propagations          : 24811863       (10465802 /sec)
conflict literals     : 1198878        (57.23 % deleted)
Memory used           : 28.18 MB
CPU time              : 2.37076 s

INDETERMINATE
